(set-logic QF_AUFBV)
(declare-fun v13 () (_ BitVec 12))
(declare-fun v16 () (_ BitVec 10))
(declare-fun bvlambda_1_ () (_ BitVec 1))
(declare-fun bvlambda_2_ () (_ BitVec 4))
(declare-fun bvlambda_3_ () (_ BitVec 1))
(declare-fun bvlambda_4_ () (_ BitVec 15))
(declare-fun bvlambda_5_ () (_ BitVec 1))
(declare-fun bvlambda_6_ () (_ BitVec 11))
(declare-fun bvlambda_7_ () (_ BitVec 1))
(declare-fun bvlambda_8_ () (_ BitVec 4))
(declare-fun bvlambda_9_ () (_ BitVec 4))
(declare-fun bvlambda_10_ () (_ BitVec 2))
(declare-fun bvlambda_11_ () (_ BitVec 7))
(declare-fun bvlambda_13_ () (_ BitVec 2))
(declare-fun bvlambda_14_ () (_ BitVec 1))
(declare-fun bvlambda_15_ () (_ BitVec 6))
(declare-fun bvlambda_16_ () (_ BitVec 1))
(declare-fun bvlambda_17_ () (_ BitVec 3))
(declare-fun bvlambda_18_ () (_ BitVec 2))
(declare-fun bvlambda_19_ () (_ BitVec 3))
(declare-fun bvlambda_20_ () (_ BitVec 1))
(declare-fun bvlambda_21_ () (_ BitVec 1))
(declare-fun bvlambda_22_ () (_ BitVec 5))
(declare-fun bvlambda_23_ () (_ BitVec 1))
(declare-fun bvlambda_24_ () (_ BitVec 11))
(declare-fun bvlambda_25_ () (_ BitVec 1))
(declare-fun bvlambda_26_ () (_ BitVec 5))
(declare-fun bvlambda_27_ () (_ BitVec 1))
(declare-fun bvlambda_28_ () (_ BitVec 4))
(declare-fun bvlambda_29_ () (_ BitVec 1))
(declare-fun bvlambda_30_ () (_ BitVec 1))
(declare-fun bvlambda_31_ () (_ BitVec 10))
(declare-fun bvlambda_32_ () (_ BitVec 1))
(declare-fun bvlambda_33_ () (_ BitVec 1))
(declare-fun bvlambda_34_ () (_ BitVec 1))
(declare-fun bvlambda_35_ () (_ BitVec 1))
(declare-fun bvlambda_36_ () (_ BitVec 1))
(declare-fun bvlambda_37_ () (_ BitVec 5))
(declare-fun bvlambda_38_ () (_ BitVec 1))
(declare-fun bvlambda_39_ () (_ BitVec 2))
(declare-fun bvlambda_40_ () (_ BitVec 9))
(declare-fun bvlambda_41_ () (_ BitVec 1))
(declare-fun bvlambda_42_ () (_ BitVec 2))
(declare-fun bvlambda_43_ () (_ BitVec 1))
(declare-fun bvlambda_44_ () (_ BitVec 2))
(declare-fun bvlambda_45_ () (_ BitVec 1))
(declare-fun bvlambda_46_ () (_ BitVec 11))
(declare-fun bvlambda_48_ () (_ BitVec 4))
(declare-fun bvlambda_50_ () (_ BitVec 1))
(declare-fun a100 () (Array (_ BitVec 10) (_ BitVec 12)))
(declare-fun a101 () (Array (_ BitVec 1) (_ BitVec 4)))
(declare-fun a102 () (Array (_ BitVec 12) (_ BitVec 16)))
(declare-fun a103 () (Array (_ BitVec 7) (_ BitVec 7)))
(assert
(let (($e1 (_ bv0 1)))
(let (($e2 (_ bv0 2)))
(let (($e3 (_ bv13354 14)))
(let (($e4 (_ bv30164 16)))
(let (($e5 (_ bv2020 13)))
(let (($e6 (_ bv3658 13)))
(let (($e7 (_ bv50 6)))
(let (($e8 (_ bv0 10)))
(let (($e9 (_ bv1022 10)))
(let (($e10 (_ bv0 4)))
(let (($e11 (_ bv0 6)))
(let (($e12 (_ bv0 5)))
(let (($e13 (_ bv0 3)))
(let (($e14 (_ bv60 6)))
(let (($e15 (_ bv0 8)))
(let (($e16 (_ bv0 9)))
(let (($e17 (_ bv0 16)))
(let (($e18 (_ bv0 7)))
(let (($e19 (_ bv126 7)))
(let (($e20 (_ bv0 11)))
(let (($e21 (_ bv12 12)))
(let (($e22 (_ bv10 10)))
(let (($e23 (_ bv0 12)))
(let (($e24 (_ bv65264 16)))
(let (($e25 (_ bv2886 14)))
(let (($e26 (_ bv1020 10)))
(let (($e27 (_ bv4012 12)))
(let (($e28 (_ bv652 10)))
(let (($e29 (_ bv44 12)))
(let (($e30 (_ bv302 10)))
(let (($e31 (_ bv12 10)))
(let (($e32 (_ bv560 12)))
(let (($e33 (_ bv0 15)))
(let (($e34 (_ bv4094 12)))
(let (($e35 (_ bv30 5)))
(let (($e36 (_ bv2044 11)))
(let (($e37 (_ bv2 15)))
(let (($e38 (_ bv0 13)))
(let (($e39 (_ bv65534 16)))
(let (($e40 (_ bv5162 13)))
(let (($e41 (_ bv4092 12)))
(let (($e42 (_ bv2020 14)))
(let (($e43 (_ bv30164 15)))
(let (($e44 (_ bv3946 12)))
(let (($e45 (_ bv58 6)))
(let (($e46 (_ bv124 7)))
(let (($e47 (_ bv236 13)))
(let (($e48 (_ bv8172 13)))
(let (($e49 (_ bv2886 15)))
(let (($e50 (_ bv1018 10)))
(let (($e104 (concat bvlambda_14_ bvlambda_15_)))
(let (($e105 (bvadd (bvnot $e19) (bvnot $e104))))
(let (($e106 (ite (= #b1 bvlambda_14_) $e105 $e104)))
(let (($e107 (concat $e2 bvlambda_27_)))
(let (($e108 (concat $e107 bvlambda_28_)))
(let (($e109 (bvurem $e108 $e106)))
(let (($e110 (ite (= $e18 $e109) #b1 #b0)))
(let (($e111 (bvadd $e104 $e109)))
(let (($e112 (ite (= #b1 bvlambda_14_) $e111 $e18)))
(let (($e113 (ite (= #b1 bvlambda_14_) $e18 $e109)))
(let (($e114 (bvand (bvnot $e113) (bvnot $e112))))
(let (($e115 (ite (= $e18 $e114) #b1 #b0)))
(let (($e116 (concat (bvnot $e12) (bvnot $e114))))
(let (($e117 (concat $e12 (bvnot $e114))))
(let (($e118 ((_ extract 6 6) $e114)))
(let (($e119 (ite (= #b1 $e118) $e117 $e116)))
(let (($e120 ((_ extract 3 0) $e119)))
(let (($e121 (bvlshr (bvnot $e24)  ((_ zero_extend 12) $e120))))
(let (($e122 ((_ extract 11 0) $e121)))
(let (($e123 ((_ extract 11 4) $e119)))
(let (($e124 (ite (= $e15 $e123) #b1 #b0)))
(let (($e125 (ite (= #b1 $e124) (bvnot $e122) (bvnot $e23))))
(let (($e126 (concat $e8 bvlambda_32_)))
(let (($e127 (concat $e126 bvlambda_33_)))
(let (($e128 (concat (bvnot $e8) bvlambda_32_)))
(let (($e129 (concat $e128 bvlambda_33_)))
(let (($e130 (ite (= #b1 bvlambda_32_) $e129 $e127)))
(let (($e131 (ite (= $e130 $e125) #b1 #b0)))
(let (($e132 (bvand $e130 $e125)))
(let (($e133 (bvand (bvnot $e130) (bvnot $e125))))
(let (($e134 (bvand (bvnot $e133) (bvnot $e132))))
(let (($e135 (bvadd (bvnot $e34) (bvnot $e134))))
(let (($e136 ((_ extract 11 11) $e134)))
(let (($e137 (ite (= #b1 $e136) $e135 $e134)))
(let (($e138 (select a101 $e1)))
(let (($e139 (ite (= v16 $e22) #b1 #b0)))
(let (($e140 (concat $e13 $e139)))
(let (($e141 (bvand $e140 $e138)))
(let (($e142 (concat (bvnot $e15) (bvnot $e141))))
(let (($e143 (concat $e15 (bvnot $e141))))
(let (($e144 ((_ extract 3 3) $e141)))
(let (($e145 (ite (= #b1 $e144) $e143 $e142)))
(let (($e146 (bvadd (bvnot $e34) (bvnot $e145))))
(let (($e147 ((_ extract 11 11) $e145)))
(let (($e148 (ite (= #b1 $e147) $e146 $e145)))
(let (($e149 (bvudiv $e148 $e137)))
(let (($e150 (bvadd (bvnot $e34) (bvnot $e149))))
(let (($e151 (bvand $e147 $e136)))
(let (($e152 (bvand (bvnot $e147) (bvnot $e136))))
(let (($e153 (bvand (bvnot $e152) (bvnot $e151))))
(let (($e154 (ite (= #b1 $e153) $e150 $e149)))
(let (($e155 (ite (= $e23 $e154) #b1 #b0)))
(let (($e156 (ite (= (bvnot $e23) $e154) #b1 #b0)))
(let (($e157 (concat (bvnot $e2) (bvnot bvlambda_23_))))
(let (($e158 (concat $e157 (bvnot bvlambda_24_))))
(let (($e159 (concat $e2 (bvnot bvlambda_23_))))
(let (($e160 (concat $e159 (bvnot bvlambda_24_))))
(let (($e161 (ite (= #b1 bvlambda_23_) $e160 $e158)))
(let (($e162 (bvmul (bvnot $e25) $e161)))
(let (($e163 ((_ extract 12 0) $e162)))
(let (($e164 (bvadd (bvnot $e34) (bvnot $e154))))
(let (($e165 ((_ extract 11 11) $e154)))
(let (($e166 (ite (= #b1 $e165) $e164 $e154)))
(let (($e167 (concat $e11 bvlambda_21_)))
(let (($e168 (concat $e167 bvlambda_22_)))
(let (($e169 (concat (bvnot $e11) bvlambda_21_)))
(let (($e170 (concat $e169 bvlambda_22_)))
(let (($e171 (ite (= #b1 bvlambda_21_) $e170 $e168)))
(let (($e172 (bvadd (bvnot $e34) (bvnot $e171))))
(let (($e173 ((_ extract 11 11) $e171)))
(let (($e174 (ite (= #b1 $e173) $e172 $e171)))
(let (($e175 (bvudiv $e174 $e166)))
(let (($e176 (bvadd (bvnot $e34) (bvnot $e175))))
(let (($e177 (bvand $e173 $e165)))
(let (($e178 (bvand (bvnot $e173) (bvnot $e165))))
(let (($e179 (bvand (bvnot $e178) (bvnot $e177))))
(let (($e180 (ite (= #b1 $e179) $e176 $e175)))
(let (($e181 (concat $e1 $e180)))
(let (($e182 (ite (bvult $e181 $e163) #b1 #b0)))
(let (($e183 ((_ extract 13 13) $e162)))
(let (($e184 (bvand (bvnot $e183) $e182)))
(let (($e185 (concat $e12 bvlambda_27_)))
(let (($e186 (concat $e185 bvlambda_28_)))
(let (($e187 (concat (bvnot $e12) bvlambda_27_)))
(let (($e188 (concat $e187 bvlambda_28_)))
(let (($e189 (ite (= #b1 bvlambda_27_) $e188 $e186)))
(let (($e190 (bvurem $e189 v16)))
(let (($e191 (concat bvlambda_11_ (bvnot $e1))))
(let (($e192 (concat $e191 bvlambda_13_)))
(let (($e193 (store a100 $e192 (bvnot $e29))))
(let (($e194 (select $e193 $e190)))
(let (($e195 (bvmul (bvnot $e21) $e194)))
(let (($e196 ((_ extract 11 11) $e195)))
(let (($e197 (concat (bvnot $e18) (bvnot bvlambda_1_))))
(let (($e198 (concat $e197 (bvnot bvlambda_2_))))
(let (($e199 (concat $e18 (bvnot bvlambda_1_))))
(let (($e200 (concat $e199 (bvnot bvlambda_2_))))
(let (($e201 (ite (= #b1 bvlambda_1_) $e200 $e198)))
(let (($e202 ((_ extract 11 11) $e201)))
(let (($e203 (ite (= $e202 $e196) #b1 #b0)))
(let (($e204 ((_ extract 10 0) $e195)))
(let (($e205 ((_ extract 10 0) $e201)))
(let (($e206 (ite (bvult $e205 $e204) #b1 #b0)))
(let (($e207 (bvand $e206 $e203)))
(let (($e208 (bvand $e202 (bvnot $e196))))
(let (($e209 (bvand (bvnot $e208) (bvnot $e207))))
(let (($e210 (bvand (bvnot $e209) (bvnot $e184))))
(let (($e211 (concat $e15 bvlambda_34_)))
(let (($e212 (concat $e211 bvlambda_35_)))
(let (($e213 (concat (bvnot $e15) bvlambda_34_)))
(let (($e214 (concat $e213 bvlambda_35_)))
(let (($e215 (ite (= #b1 bvlambda_34_) $e214 $e212)))
(let (($e216 ((_ extract 9 9) $e215)))
(let (($e217 (concat $e16 $e216)))
(let (($e218 (concat (bvnot $e16) $e216)))
(let (($e219 (ite (= #b1 $e216) $e218 $e217)))
(let (($e220 (concat bvlambda_19_ bvlambda_20_)))
(let (($e221 (concat $e11 $e215)))
(let (($e222 (concat (bvnot $e11) $e215)))
(let (($e223 (ite (= #b1 $e216) $e222 $e221)))
(let (($e224 (bvlshr $e223  ((_ zero_extend 12) $e220))))
(let (($e225 (bvlshr (bvnot $e223)  ((_ zero_extend 12) $e220))))
(let (($e226 ((_ extract 15 15) $e223)))
(let (($e227 (ite (= #b1 $e226) (bvnot $e225) $e224)))
(let (($e228 ((_ extract 9 0) $e227)))
(let (($e229 (ite (= $e2 bvlambda_18_) #b1 #b0)))
(let (($e230 (ite (= $e13 bvlambda_17_) #b1 #b0)))
(let (($e231 (bvand (bvnot bvlambda_16_) $e230)))
(let (($e232 (bvand $e231 $e229)))
(let (($e233 (ite (= #b1 $e232) $e228 $e219)))
(let (($e234 (concat $e13 $e233)))
(let (($e235 (ite (bvult $e5 $e234) #b1 #b0)))
(let (($e236 (concat $e13 (bvnot $e235))))
(let (($e237 (concat bvlambda_27_ bvlambda_28_)))
(let (($e238 (bvadd (bvnot $e35) (bvnot $e237))))
(let (($e239 (ite (= #b1 bvlambda_27_) $e238 $e237)))
(let (($e240 (bvurem (bvnot $e35) $e239)))
(let (($e241 (bvadd $e237 $e240)))
(let (($e242 (ite (= $e12 $e240) #b1 #b0)))
(let (($e243 (bvand bvlambda_27_ (bvnot $e242))))
(let (($e244 (ite (= #b1 $e243) $e241 $e12)))
(let (($e245 (ite (= #b1 bvlambda_27_) $e12 $e240)))
(let (($e246 (bvand (bvnot $e245) (bvnot $e244))))
(let (($e247 ((_ extract 3 0) $e246)))
(let (($e248 (ite (bvult (bvnot $e247) $e236) #b1 #b0)))
(let (($e249 ((_ extract 4 4) $e246)))
(let (($e250 (bvand $e249 (bvnot $e248))))
(let (($e251 (ite (= $e250 $e210) #b1 #b0)))
(let (($e252 (concat bvlambda_10_ bvlambda_11_)))
(let (($e253 (concat $e252 (bvnot $e1))))
(let (($e254 (concat $e253 bvlambda_13_)))
(let (($e255 (bvurem $e168 $e254)))
(let (($e256 (concat $e2 v16)))
(let (($e257 (bvmul $e256 $e255)))
(let (($e258 (ite (bvult $e257 (bvnot $e21)) #b1 #b0)))
(let (($e259 (concat $e20 $e258)))
(let (($e260 (concat (bvnot $e20) $e258)))
(let (($e261 (ite (= #b1 $e258) $e260 $e259)))
(let (($e262 ((_ extract 11 11) $e261)))
(let (($e263 (concat $e8 bvlambda_34_)))
(let (($e264 (concat $e263 bvlambda_35_)))
(let (($e265 (concat (bvnot $e8) bvlambda_34_)))
(let (($e266 (concat $e265 bvlambda_35_)))
(let (($e267 (ite (= #b1 bvlambda_34_) $e266 $e264)))
(let (($e268 (concat bvlambda_23_ bvlambda_24_)))
(let (($e269 (bvand (bvnot $e268) $e267)))
(let (($e270 (bvand $e268 (bvnot $e267))))
(let (($e271 (bvand (bvnot $e270) (bvnot $e269))))
(let (($e272 ((_ extract 11 11) $e271)))
(let (($e273 (bvand (bvnot $e272) (bvnot $e262))))
(let (($e274 (bvand $e272 $e262)))
(let (($e275 (bvand (bvnot $e274) (bvnot $e273))))
(let (($e276 ((_ extract 10 0) $e271)))
(let (($e277 ((_ extract 10 0) $e261)))
(let (($e278 (ite (bvult $e277 (bvnot $e276)) #b1 #b0)))
(let (($e279 (bvand $e278 $e275)))
(let (($e280 (bvand (bvnot $e274) (bvnot $e279))))
(let (($e281 (concat bvlambda_45_ bvlambda_46_)))
(let (($e282 (concat $e13 v16)))
(let (($e283 (concat $e13 $e189)))
(let (($e284 (ite (= #b1 bvlambda_50_) $e283 $e282)))
(let (($e285 (ite (= (bvnot $e40) $e284) #b1 #b0)))
(let (($e286 (concat $e20 $e285)))
(let (($e287 (concat (bvnot $e20) $e285)))
(let (($e288 (ite (= #b1 $e285) $e287 $e286)))
(let (($e289 (bvurem $e288 $e281)))
(let (($e290 ((_ extract 10 0) $e289)))
(let (($e291 (concat $e12 bvlambda_25_)))
(let (($e292 (concat $e291 bvlambda_26_)))
(let (($e293 (ite (bvult $e292 $e290) #b1 #b0)))
(let (($e294 ((_ extract 11 11) $e289)))
(let (($e295 (bvand (bvnot $e294) $e293)))
(let (($e296 (ite (= $e295 (bvnot $e280)) #b1 #b0)))
(let (($e297 (bvand $e296 $e251)))
(let (($e298 (ite (= (bvnot $e33) bvlambda_4_) #b1 #b0)))
(let (($e299 (concat $e20 $e298)))
(let (($e300 (concat $e20 bvlambda_3_)))
(let (($e301 (bvand $e300 $e299)))
(let (($e302 (bvurem $e301 v13)))
(let (($e303 ((_ extract 11 11) $e302)))
(let (($e304 (concat $e23 $e303)))
(let (($e305 (concat bvlambda_23_ bvlambda_23_)))
(let (($e306 (concat $e305 bvlambda_24_)))
(let (($e307 (bvurem $e306 (bvnot $e6))))
(let (($e308 (ite (bvult $e307 $e304) #b1 #b0)))
(let (($e309 (bvand $e308 $e297)))
(let (($e310 (concat $e10 bvlambda_25_)))
(let (($e311 (concat $e310 bvlambda_26_)))
(let (($e312 (concat (bvnot $e10) bvlambda_25_)))
(let (($e313 (concat $e312 bvlambda_26_)))
(let (($e314 (ite (= #b1 bvlambda_25_) $e313 $e311)))
(let (($e315 (concat $e314 $e2)))
(let (($e316 ((_ extract 10 1) $e315)))
(let (($e317 (concat bvlambda_16_ bvlambda_17_)))
(let (($e318 (concat $e317 bvlambda_18_)))
(let (($e319 (concat $e318 bvlambda_19_)))
(let (($e320 (concat $e319 bvlambda_20_)))
(let (($e321 (bvadd (bvnot $e9) (bvnot $e320))))
(let (($e322 (ite (= #b1 bvlambda_16_) $e321 $e320)))
(let (($e323 (bvudiv (bvnot $e9) $e322)))
(let (($e324 (bvadd (bvnot $e9) (bvnot $e323))))
(let (($e325 (ite (= #b1 bvlambda_16_) $e324 $e323)))
(let (($e326 (concat $e11 $e325)))
(let (($e327 (concat (bvnot $e11) $e325)))
(let (($e328 ((_ extract 9 9) $e325)))
(let (($e329 (ite (= #b1 $e328) $e327 $e326)))
(let (($e330 ((_ extract 3 0) $e329)))
(let (($e331 (bvlshr (bvnot $e4)  ((_ zero_extend 12) $e330))))
(let (($e332 ((_ extract 12 1) $e331)))
(let (($e333 ((_ extract 15 4) $e329)))
(let (($e334 (ite (= $e23 $e333) #b1 #b0)))
(let (($e335 (ite (= #b1 $e334) $e332 $e23)))
(let (($e336 (concat bvlambda_38_ bvlambda_39_)))
(let (($e337 (concat $e336 bvlambda_40_)))
(let (($e338 (store a100 (bvnot $e26) (bvnot $e27))))
(let (($e339 (store $e338 (bvnot $e28) $e337)))
(let (($e340 (store $e339 bvlambda_31_ $e335)))
(let (($e341 (select $e340 $e316)))
(let (($e342 (bvadd (bvnot $e34) (bvnot $e341))))
(let (($e343 ((_ extract 11 11) $e341)))
(let (($e344 (ite (= #b1 $e343) $e342 $e341)))
(let (($e345 (concat $e2 bvlambda_20_)))
(let (($e346 (concat (bvnot $e2) bvlambda_20_)))
(let (($e347 (ite (= #b1 bvlambda_20_) $e346 $e345)))
(let (($e348 (concat $e347 bvlambda_16_)))
(let (($e349 (concat $e348 bvlambda_17_)))
(let (($e350 (concat $e349 bvlambda_18_)))
(let (($e351 (concat $e350 bvlambda_19_)))
(let (($e352 (bvadd (bvnot $e34) (bvnot $e351))))
(let (($e353 ((_ extract 2 2) $e347)))
(let (($e354 (ite (= #b1 $e353) $e352 $e351)))
(let (($e355 (bvudiv $e354 $e344)))
(let (($e356 (bvadd (bvnot $e34) (bvnot $e355))))
(let (($e357 (bvand $e353 $e343)))
(let (($e358 (bvand (bvnot $e353) (bvnot $e343))))
(let (($e359 (bvand (bvnot $e358) (bvnot $e357))))
(let (($e360 (ite (= #b1 $e359) $e356 $e355)))
(let (($e361 (ite (bvult $e360 $e154) #b1 #b0)))
(let (($e362 (concat $e2 bvlambda_25_)))
(let (($e363 (concat $e362 bvlambda_26_)))
(let (($e364 (concat (bvnot $e2) bvlambda_25_)))
(let (($e365 (concat $e364 bvlambda_26_)))
(let (($e366 (ite (= #b1 bvlambda_25_) $e365 $e363)))
(let (($e367 (concat (bvnot $e12) (bvnot $e366))))
(let (($e368 (bvand $e48 $e367)))
(let (($e369 (concat $e12 (bvnot $e366))))
(let (($e370 (bvand $e47 $e369)))
(let (($e371 ((_ extract 7 7) $e366)))
(let (($e372 (ite (= #b1 $e371) (bvnot $e370) (bvnot $e368))))
(let (($e373 (select $e193 $e30)))
(let (($e374 (concat $e1 $e373)))
(let (($e375 (ite (bvult $e374 $e372) #b1 #b0)))
(let (($e376 (bvand (bvnot $e375) (bvnot $e361))))
(let (($e377 (concat bvlambda_43_ bvlambda_43_)))
(let (($e378 (concat $e377 bvlambda_44_)))
(let (($e379 (store a101 (bvnot $e1) $e378)))
(let (($e380 (select $e379 (bvnot $e235))))
(let (($e381 ((_ extract 3 1) $e380)))
(let (($e382 ((_ extract 0 0) $e380)))
(let (($e383 (concat $e1 $e382)))
(let (($e384 (concat $e383 $e381)))
(let (($e385 (bvadd (bvnot $e35) (bvnot $e384))))
(let (($e386 (bvadd $e385 (bvnot $e246))))
(let (($e387 ((_ extract 0 0) $e314)))
(let (($e388 (bvand bvlambda_3_ $e298)))
(let (($e389 (ite (= $e388 $e387) #b1 #b0)))
(let (($e390 ((_ extract 9 1) $e314)))
(let (($e391 (ite (= $e16 $e390) #b1 #b0)))
(let (($e392 (bvand $e391 $e389)))
(let (($e393 (concat $e10 (bvnot $e392))))
(let (($e394 (bvurem $e393 $e386)))
(let (($e395 (concat $e12 $e394)))
(let (($e396 (concat (bvnot $e12) $e394)))
(let (($e397 ((_ extract 4 4) $e394)))
(let (($e398 (ite (= #b1 $e397) $e396 $e395)))
(let (($e399 ((_ extract 9 9) $e398)))
(let (($e400 (bvand (bvnot $e325) (bvnot $e215))))
(let (($e401 ((_ extract 9 9) $e400)))
(let (($e402 (bvand $e401 $e399)))
(let (($e403 (bvand (bvnot $e401) (bvnot $e399))))
(let (($e404 (bvand (bvnot $e403) (bvnot $e402))))
(let (($e405 ((_ extract 8 0) $e398)))
(let (($e406 ((_ extract 8 0) $e400)))
(let (($e407 (ite (bvult (bvnot $e406) $e405) #b1 #b0)))
(let (($e408 (bvand $e407 $e404)))
(let (($e409 (bvand (bvnot $e403) (bvnot $e408))))
(let (($e410 (select a100 (bvnot $e31))))
(let (($e411 ((_ extract 10 0) $e410)))
(let (($e412 (ite (= $e20 $e411) #b1 #b0)))
(let (($e413 ((_ extract 11 11) $e410)))
(let (($e414 (bvand (bvnot $e413) (bvnot $e412))))
(let (($e415 (concat $e38 (bvnot $e414))))
(let (($e416 (ite (bvult $e415 $e42) #b1 #b0)))
(let (($e417 (bvand (bvnot $e416) (bvnot $e409))))
(let (($e418 (bvand (bvnot $e417) $e375)))
(let (($e419 (bvand (bvnot $e418) (bvnot $e376))))
(let (($e420 (bvadd (bvnot $e19) $e114)))
(let (($e421 (ite (= #b1 $e118) (bvnot $e114) $e420)))
(let (($e422 (concat $e12 $e298)))
(let (($e423 (concat $e12 bvlambda_3_)))
(let (($e424 (bvand $e423 $e422)))
(let (($e425 (concat bvlambda_36_ bvlambda_37_)))
(let (($e426 (ite (= #b1 bvlambda_27_) $e425 (bvnot $e14))))
(let (($e427 (ite (bvult $e426 $e424) #b1 #b0)))
(let (($e428 (ite (= $e10 bvlambda_2_) #b1 #b0)))
(let (($e429 (concat $e13 (bvnot $e428))))
(let (($e430 (concat $e13 (bvnot bvlambda_1_))))
(let (($e431 (bvand $e430 $e429)))
(let (($e432 (concat (bvnot $e13) (bvnot $e428))))
(let (($e433 (concat (bvnot $e13) (bvnot bvlambda_1_))))
(let (($e434 (bvand $e433 $e432)))
(let (($e435 (bvand (bvnot bvlambda_1_) (bvnot $e428))))
(let (($e436 (ite (= #b1 $e435) $e434 $e431)))
(let (($e437 (store a101 (bvnot $e1) $e436)))
(let (($e438 (select $e437 (bvnot $e427))))
(let (($e439 (concat $e13 $e438)))
(let (($e440 (concat (bvnot $e13) $e438)))
(let (($e441 ((_ extract 3 3) $e438)))
(let (($e442 (ite (= #b1 $e441) $e440 $e439)))
(let (($e443 (bvadd (bvnot $e19) (bvnot $e442))))
(let (($e444 ((_ extract 6 6) $e442)))
(let (($e445 (ite (= #b1 $e444) $e443 $e442)))
(let (($e446 (bvurem $e445 $e421)))
(let (($e447 (bvadd (bvnot $e19) (bvnot $e446))))
(let (($e448 (ite (= #b1 $e444) $e447 $e446)))
(let (($e449 (concat $e12 $e448)))
(let (($e450 (concat (bvnot $e12) $e448)))
(let (($e451 ((_ extract 6 6) $e448)))
(let (($e452 (ite (= #b1 $e451) $e450 $e449)))
(let (($e453 ((_ extract 11 11) $e452)))
(let (($e454 (bvand (bvnot bvlambda_23_) (bvnot $e453))))
(let (($e455 (bvand bvlambda_23_ $e453)))
(let (($e456 (bvand (bvnot $e455) (bvnot $e454))))
(let (($e457 ((_ extract 10 0) $e452)))
(let (($e458 (ite (bvult $e457 (bvnot bvlambda_24_)) #b1 #b0)))
(let (($e459 (bvand $e458 $e456)))
(let (($e460 (bvand (bvnot $e455) (bvnot $e459))))
(let (($e461 (concat $e2 $e380)))
(let (($e462 (concat (bvnot $e2) $e380)))
(let (($e463 ((_ extract 3 3) $e380)))
(let (($e464 (ite (= #b1 $e463) $e462 $e461)))
(let (($e465 (bvudiv $e464 $e7)))
(let (($e466 (ite (bvult $e45 $e465) #b1 #b0)))
(let (($e467 (bvand (bvnot $e466) (bvnot $e460))))
(let (($e468 (concat bvlambda_40_ bvlambda_41_)))
(let (($e469 (concat $e468 bvlambda_42_)))
(let (($e470 (select a102 $e469)))
(let (($e471 ((_ extract 15 3) $e470)))
(let (($e472 ((_ extract 2 0) $e470)))
(let (($e473 (concat $e472 $e471)))
(let (($e474 (bvadd (bvnot $e39) (bvnot $e473))))
(let (($e475 (concat $e1 $e325)))
(let (($e476 (ite (bvult $e475 bvlambda_46_) #b1 #b0)))
(let (($e477 (concat $e33 $e476)))
(let (($e478 (concat $e33 (bvnot bvlambda_45_))))
(let (($e479 (bvand $e478 $e477)))
(let (($e480 (concat (bvnot $e33) $e476)))
(let (($e481 (concat (bvnot $e33) (bvnot bvlambda_45_))))
(let (($e482 (bvand $e481 $e480)))
(let (($e483 (bvand (bvnot bvlambda_45_) $e476)))
(let (($e484 (ite (= #b1 $e483) (bvnot $e482) (bvnot $e479))))
(let (($e485 (concat bvlambda_39_ bvlambda_40_)))
(let (($e486 (concat $e485 bvlambda_41_)))
(let (($e487 (store a102 $e486 $e484)))
(let (($e488 (select $e487 (bvnot $e34))))
(let (($e489 (ite (= $e488 $e474) #b1 #b0)))
(let (($e490 (bvand $e489 (bvnot $e467))))
(let (($e491 (ite (= (bvnot $e490) $e419) #b1 #b0)))
(let (($e492 (concat $e18 bvlambda_43_)))
(let (($e493 (concat $e492 bvlambda_44_)))
(let (($e494 (concat (bvnot $e18) bvlambda_43_)))
(let (($e495 (concat $e494 bvlambda_44_)))
(let (($e496 (ite (= #b1 bvlambda_43_) $e495 $e493)))
(let (($e497 ((_ extract 9 9) $e496)))
(let (($e498 (ite (= bvlambda_16_ $e497) #b1 #b0)))
(let (($e499 ((_ extract 8 0) $e496)))
(let (($e500 (concat bvlambda_17_ bvlambda_18_)))
(let (($e501 (concat $e500 bvlambda_19_)))
(let (($e502 (concat $e501 bvlambda_20_)))
(let (($e503 (ite (bvult $e502 $e499) #b1 #b0)))
(let (($e504 (bvand $e503 $e498)))
(let (($e505 (bvand bvlambda_16_ (bvnot $e497))))
(let (($e506 (bvand (bvnot $e505) (bvnot $e504))))
(let (($e507 (bvand $e506 $e258)))
(let (($e508 ((_ extract 10 4) $e255)))
(let (($e509 (concat $e11 (bvnot $e427))))
(let (($e510 ((_ extract 8 2) $e190)))
(let (($e511 (store a103 $e510 $e509)))
(let (($e512 (select $e511 $e508)))
(let (($e513 (concat $e12 $e512)))
(let (($e514 (concat (bvnot $e12) $e512)))
(let (($e515 ((_ extract 6 6) $e512)))
(let (($e516 (ite (= #b1 $e515) $e514 $e513)))
(let (($e517 (ite (bvult $e410 $e516) #b1 #b0)))
(let (($e518 (bvand (bvnot $e517) (bvnot $e507))))
(let (($e519 (concat $e33 $e139)))
(let (($e520 (concat (bvnot $e33) $e139)))
(let (($e521 (ite (= #b1 $e139) $e520 $e519)))
(let (($e522 ((_ extract 14 0) $e521)))
(let (($e523 (ite (bvult $e522 (bvnot $e49)) #b1 #b0)))
(let (($e524 ((_ extract 15 15) $e521)))
(let (($e525 (bvand $e524 $e523)))
(let (($e526 (ite (= $e525 $e518) #b1 #b0)))
(let (($e527 (bvlshr $e488  ((_ zero_extend 12) bvlambda_48_))))
(let (($e528 (concat $e2 $e162)))
(let (($e529 (ite (bvult $e528 $e527) #b1 #b0)))
(let (($e530 (bvand $e529 $e526)))
(let (($e531 (bvand (bvnot $e529) (bvnot $e526))))
(let (($e532 (bvand (bvnot $e531) (bvnot $e530))))
(let (($e533 ((_ extract 10 1) $e257)))
(let (($e534 (select $e340 $e533)))
(let (($e535 ((_ extract 11 11) $e534)))
(let (($e536 (concat $e20 $e535)))
(let (($e537 (concat (bvnot $e20) $e535)))
(let (($e538 (ite (= #b1 $e535) $e537 $e536)))
(let (($e539 ((_ extract 11 11) $e538)))
(let (($e540 (ite (= $e10 bvlambda_8_) #b1 #b0)))
(let (($e541 (bvand (bvnot bvlambda_7_) $e540)))
(let (($e542 (bvand (bvnot $e541) (bvnot $e539))))
(let (($e543 (concat $e10 $e534)))
(let (($e544 (concat (bvnot $e10) $e534)))
(let (($e545 (ite (= #b1 $e535) $e544 $e543)))
(let (($e546 (bvlshr $e545  ((_ zero_extend 12) bvlambda_9_))))
(let (($e547 (bvlshr (bvnot $e545)  ((_ zero_extend 12) bvlambda_9_))))
(let (($e548 ((_ extract 15 15) $e545)))
(let (($e549 (ite (= #b1 $e548) (bvnot $e547) $e546)))
(let (($e550 ((_ extract 11 11) $e549)))
(let (($e551 (bvand $e541 (bvnot $e550))))
(let (($e552 (bvand (bvnot $e551) (bvnot $e542))))
(let (($e553 (concat (bvnot $e20) (bvnot $e427))))
(let (($e554 (concat $e20 (bvnot $e427))))
(let (($e555 (ite (= #b1 $e427) $e554 $e553)))
(let (($e556 ((_ extract 11 11) $e555)))
(let (($e557 (ite (= $e556 $e552) #b1 #b0)))
(let (($e558 ((_ extract 10 0) $e538)))
(let (($e559 ((_ extract 10 0) $e549)))
(let (($e560 (ite (= #b1 $e541) $e559 $e558)))
(let (($e561 ((_ extract 10 0) $e555)))
(let (($e562 (ite (bvult $e561 $e560) #b1 #b0)))
(let (($e563 (bvand $e562 $e557)))
(let (($e564 (bvand $e556 (bvnot $e552))))
(let (($e565 (bvand (bvnot $e564) (bvnot $e563))))
(let (($e566 ((_ extract 11 2) $e341)))
(let (($e567 (select $e339 $e566)))
(let (($e568 (concat $e10 $e567)))
(let (($e569 (concat (bvnot $e10) $e567)))
(let (($e570 ((_ extract 11 11) $e567)))
(let (($e571 (ite (= #b1 $e570) $e569 $e568)))
(let (($e572 ((_ extract 14 0) $e571)))
(let (($e573 (ite (bvult $e572 (bvnot $e43)) #b1 #b0)))
(let (($e574 ((_ extract 15 15) $e571)))
(let (($e575 (bvand $e574 $e573)))
(let (($e576 (ite (= $e575 $e565) #b1 #b0)))
(let (($e577 (bvand (bvnot $e576) (bvnot $e532))))
(let (($e578 (concat $e11 v16)))
(let (($e579 (concat $e11 $e189)))
(let (($e580 (ite (= #b1 bvlambda_50_) $e579 $e578)))
(let (($e581 (concat bvlambda_3_ bvlambda_4_)))
(let (($e582 (bvlshr $e581  ((_ zero_extend 12) $e140))))
(let (($e583 (bvlshr (bvnot $e581)  ((_ zero_extend 12) $e140))))
(let (($e584 (ite (= #b1 bvlambda_3_) (bvnot $e583) $e582)))
(let (($e585 (ite (bvult $e584 $e580) #b1 #b0)))
(let (($e586 (concat $e20 $e585)))
(let (($e587 ((_ extract 11 0) $e307)))
(let (($e588 (ite (bvult $e587 $e586) #b1 #b0)))
(let (($e589 ((_ extract 12 12) $e307)))
(let (($e590 (bvand (bvnot $e589) (bvnot $e588))))
(let (($e591 (bvand $e590 (bvnot $e577))))
(let (($e592 (concat $e13 bvlambda_7_)))
(let (($e593 (concat $e592 bvlambda_8_)))
(let (($e594 (concat $e593 bvlambda_9_)))
(let (($e595 (concat (bvnot $e13) bvlambda_7_)))
(let (($e596 (concat $e595 bvlambda_8_)))
(let (($e597 (concat $e596 bvlambda_9_)))
(let (($e598 (ite (= #b1 bvlambda_7_) $e597 $e594)))
(let (($e599 (ite (bvult $e598 $e555) #b1 #b0)))
(let (($e600 (bvand (bvnot $e599) (bvnot $e591))))
(let (($e601 ((_ extract 1 1) $e257)))
(let (($e602 (ite (= #b1 $e601) (bvnot $e34) $e587)))
(let (($e603 (concat $e15 $e438)))
(let (($e604 (ite (bvult $e603 $e602) #b1 #b0)))
(let (($e605 (bvand $e589 (bvnot $e601))))
(let (($e606 (bvand (bvnot $e605) $e604)))
(let (($e607 (ite (= $e606 (bvnot $e600)) #b1 #b0)))
(let (($e608 (bvand $e607 (bvnot $e491))))
(let (($e609 ((_ extract 2 0) $e512)))
(let (($e610 (concat $e15 $e609)))
(let (($e611 (bvadd (bvnot $e34) (bvnot $e534))))
(let (($e612 (ite (= #b1 $e535) $e611 $e534)))
(let (($e613 (bvadd (bvnot $e34) (bvnot $e555))))
(let (($e614 (ite (= #b1 $e556) $e613 $e555)))
(let (($e615 (bvudiv $e614 $e612)))
(let (($e616 (bvadd (bvnot $e34) (bvnot $e615))))
(let (($e617 (bvand $e556 $e535)))
(let (($e618 (bvand (bvnot $e556) (bvnot $e535))))
(let (($e619 (bvand (bvnot $e618) (bvnot $e617))))
(let (($e620 (ite (= #b1 $e619) $e616 $e615)))
(let (($e621 ((_ extract 10 0) $e620)))
(let (($e622 (ite (bvult $e621 $e610) #b1 #b0)))
(let (($e623 ((_ extract 11 11) $e620)))
(let (($e624 (bvand (bvnot $e623) (bvnot $e622))))
(let (($e625 (concat $e38 (bvnot $e624))))
(let (($e626 (ite (bvult (bvnot $e3) $e625) #b1 #b0)))
(let (($e627 (concat $e10 bvlambda_23_)))
(let (($e628 (concat $e627 bvlambda_24_)))
(let (($e629 (ite (bvult $e474 $e628) #b1 #b0)))
(let (($e630 (concat $e16 $e629)))
(let (($e631 (concat (bvnot $e16) $e629)))
(let (($e632 (ite (= #b1 $e629) $e631 $e630)))
(let (($e633 (ite (= $e190 $e632) #b1 #b0)))
(let (($e634 (ite (= $e633 $e626) #b1 #b0)))
(let (($e635 (concat (bvnot $e20) (bvnot $e506))))
(let (($e636 (concat $e20 (bvnot $e506))))
(let (($e637 (ite (= #b1 $e506) $e636 $e635)))
(let (($e638 ((_ extract 11 0) $e549)))
(let (($e639 (ite (= #b1 $e541) $e638 $e538)))
(let (($e640 (ite (bvult $e639 $e637) #b1 #b0)))
(let (($e641 (ite (= (bvnot $e640) $e634) #b1 #b0)))
(let (($e642 (concat $e12 bvlambda_36_)))
(let (($e643 (concat $e642 bvlambda_37_)))
(let (($e644 (ite (= #b1 bvlambda_27_) $e643 (bvnot $e36))))
(let (($e645 ((_ extract 10 0) $e567)))
(let (($e646 (ite (bvult $e645 $e644) #b1 #b0)))
(let (($e647 (bvand (bvnot $e570) (bvnot $e646))))
(let (($e648 (bvand $e483 (bvnot $e647))))
(let (($e649 (concat $e12 $e648)))
(let (($e650 (concat (bvnot $e12) $e648)))
(let (($e651 (ite (= #b1 $e648) $e650 $e649)))
(let (($e652 ((_ extract 5 5) $e651)))
(let (($e653 (concat $e2 bvlambda_48_)))
(let (($e654 (bvudiv $e425 $e653)))
(let (($e655 ((_ extract 5 5) $e654)))
(let (($e656 (ite (= $e655 $e652) #b1 #b0)))
(let (($e657 ((_ extract 4 0) $e651)))
(let (($e658 ((_ extract 4 0) $e654)))
(let (($e659 (ite (bvult $e658 $e657) #b1 #b0)))
(let (($e660 (bvand $e659 $e656)))
(let (($e661 (bvand $e655 (bvnot $e652))))
(let (($e662 (bvand (bvnot $e661) (bvnot $e660))))
(let (($e663 (bvand (bvnot $e662) $e641)))
(let (($e664 (ite (= (bvnot $e663) $e608) #b1 #b0)))
(let (($e665 (bvand (bvnot $e664) (bvnot $e309))))
(let (($e666 (concat $e18 $e654)))
(let (($e667 (concat (bvnot $e18) $e654)))
(let (($e668 (ite (= #b1 $e655) $e667 $e666)))
(let (($e669 (ite (bvult $e668 $e284) #b1 #b0)))
(let (($e670 (concat $e10 $e190)))
(let (($e671 (concat (bvnot $e10) $e190)))
(let (($e672 ((_ extract 9 9) $e190)))
(let (($e673 (ite (= #b1 $e672) $e671 $e670)))
(let (($e674 (ite (bvult $e162 $e673) #b1 #b0)))
(let (($e675 (bvand $e674 $e669)))
(let (($e676 (bvand (bvnot $e674) (bvnot $e669))))
(let (($e677 (bvand (bvnot $e676) (bvnot $e675))))
(let (($e678 (concat $e10 $e258)))
(let (($e679 (concat (bvnot $e10) $e258)))
(let (($e680 (ite (= #b1 $e258) $e679 $e678)))
(let (($e681 ((_ extract 4 4) $e680)))
(let (($e682 ((_ extract 4 4) $e386)))
(let (($e683 (ite (= $e682 $e681) #b1 #b0)))
(let (($e684 ((_ extract 3 0) $e386)))
(let (($e685 ((_ extract 3 0) $e680)))
(let (($e686 (ite (bvult $e685 $e684) #b1 #b0)))
(let (($e687 (bvand $e686 $e683)))
(let (($e688 (bvand (bvnot $e682) $e681)))
(let (($e689 (bvand (bvnot $e688) (bvnot $e687))))
(let (($e690 ((_ extract 2 2) $e271)))
(let (($e691 (store $e379 (bvnot $e690) $e317)))
(let (($e692 (select $e691 (bvnot $e1))))
(let (($e693 (concat $e13 $e692)))
(let (($e694 (concat (bvnot $e13) $e692)))
(let (($e695 ((_ extract 3 3) $e692)))
(let (($e696 (ite (= #b1 $e695) $e694 $e693)))
(let (($e697 (bvmul $e104 $e696)))
(let (($e698 (concat $e1 bvlambda_36_)))
(let (($e699 (concat $e698 bvlambda_37_)))
(let (($e700 (ite (= #b1 bvlambda_27_) $e699 (bvnot $e46))))
(let (($e701 (ite (bvult $e700 $e697) #b1 #b0)))
(let (($e702 (bvand $e701 $e689)))
(let (($e703 (ite (= bvlambda_36_ $e652) #b1 #b0)))
(let (($e704 (ite (bvult bvlambda_37_ $e657) #b1 #b0)))
(let (($e705 (bvand $e704 $e703)))
(let (($e706 (bvand bvlambda_36_ (bvnot $e652))))
(let (($e707 (bvand (bvnot $e706) (bvnot $e705))))
(let (($e708 (ite (= (bvnot $e707) $e702) #b1 #b0)))
(let (($e709 (bvand $e708 $e677)))
(let (($e710 (bvand (bvnot $e709) $e664)))
(let (($e711 (bvand (bvnot $e710) (bvnot $e665))))
(let (($e712 (ite (= bvlambda_31_ (bvnot $e50)) #b1 #b0)))
(let (($e713 (bvand (bvnot bvlambda_29_) (bvnot bvlambda_30_))))
(let (($e714 (bvand $e713 $e712)))
(let (($e715 (concat (bvnot $e16) (bvnot $e714))))
(let (($e716 (concat $e16 (bvnot $e714))))
(let (($e717 (ite (= #b1 $e714) $e716 $e715)))
(let (($e718 ((_ extract 8 0) $e717)))
(let (($e719 (concat $e15 (bvnot $e714))))
(let (($e720 (ite (bvult $e719 $e718) #b1 #b0)))
(let (($e721 ((_ extract 9 9) $e717)))
(let (($e722 (bvand (bvnot $e721) $e720)))
(let (($e723 (concat $e13 bvlambda_5_)))
(let (($e724 (concat $e723 bvlambda_6_)))
(let (($e725 (concat (bvnot $e13) bvlambda_5_)))
(let (($e726 (concat $e725 bvlambda_6_)))
(let (($e727 (ite (= #b1 bvlambda_5_) $e726 $e724)))
(let (($e728 ((_ extract 11 0) $e727)))
(let (($e729 (ite (= $e410 $e728) #b1 #b0)))
(let (($e730 ((_ extract 14 12) $e727)))
(let (($e731 (ite (= $e13 $e730) #b1 #b0)))
(let (($e732 (bvand $e731 $e729)))
(let (($e733 (bvand $e732 $e722)))
(let (($e734 (bvand (bvnot $e732) (bvnot $e722))))
(let (($e735 (bvand (bvnot $e734) (bvnot $e733))))
(let (($e736 (bvand (bvnot $e735) (bvnot $e711))))
(let (($e737 (concat $e20 $e517)))
(let (($e738 (concat bvlambda_29_ bvlambda_30_)))
(let (($e739 (concat $e738 bvlambda_31_)))
(let (($e740 (bvadd (bvnot $e34) (bvnot $e739))))
(let (($e741 (ite (= #b1 bvlambda_29_) $e740 $e739)))
(let (($e742 (bvudiv (bvnot $e41) $e741)))
(let (($e743 (bvadd (bvnot $e34) (bvnot $e742))))
(let (($e744 (ite (= #b1 bvlambda_29_) $e743 $e742)))
(let (($e745 (ite (bvult $e744 $e737) #b1 #b0)))
(let (($e746 (bvand $e745 $e736)))
(let (($e747 (concat $e13 bvlambda_34_)))
(let (($e748 (concat $e747 bvlambda_35_)))
(let (($e749 (concat (bvnot $e13) bvlambda_34_)))
(let (($e750 (concat $e749 bvlambda_35_)))
(let (($e751 (ite (= #b1 bvlambda_34_) $e750 $e748)))
(let (($e752 ((_ extract 3 0) $e751)))
(let (($e753 (concat $e13 (bvnot $e624))))
(let (($e754 (ite (bvult $e753 $e752) #b1 #b0)))
(let (($e755 ((_ extract 4 4) $e751)))
(let (($e756 (bvand (bvnot $e755) $e754)))
(let (($e757 ((_ extract 14 0) $e474)))
(let (($e758 (concat $e13 $e534)))
(let (($e759 (ite (bvult $e758 $e757) #b1 #b0)))
(let (($e760 ((_ extract 15 15) $e474)))
(let (($e761 (bvand (bvnot $e760) $e759)))
(let (($e762 (bvand $e761 (bvnot $e756))))
(let (($e763 (concat $e12 v16)))
(let (($e764 (concat $e12 $e190)))
(let (($e765 (concat $e337 bvlambda_41_)))
(let (($e766 (concat $e765 bvlambda_42_)))
(let (($e767 (bvand (bvnot $e766) (bvnot $e764))))
(let (($e768 (bvmul $e37 (bvnot $e767))))
(let (($e769 (ite (bvult $e768 $e763) #b1 #b0)))
(let (($e770 (ite (= $e629 $e769) #b1 #b0)))
(let (($e771 (bvand bvlambda_23_ (bvnot $e770))))
(let (($e772 (ite (bvult $e410 $e44) #b1 #b0)))
(let (($e773 (bvand $e772 $e770)))
(let (($e774 (bvand (bvnot $e773) (bvnot $e771))))
(let (($e775 (bvand (bvnot $e774) (bvnot $e762))))
(let (($e776 (bvand (bvnot $e775) (bvnot $e746))))
(let (($e777 (bvand $e775 $e746)))
(let (($e778 (ite (= $e23 $e132) #b1 #b0)))
(let (($e779 (ite (= $e23 $e133) #b1 #b0)))
(let (($e780 (bvand $e779 $e778)))
(let (($e781 (ite (= $e18 $e111) #b1 #b0)))
(let (($e782 (bvand bvlambda_14_ $e781)))
(let (($e783 (ite (= $e10 bvlambda_48_) #b1 #b0)))
(let (($e784 (ite (= $e8 $e314) #b1 #b0)))
(let (($e785 (ite (= (bvnot $e23) $e341) #b1 #b0)))
(let (($e786 (ite (= $e23 $e341) #b1 #b0)))
(let (($e787 (ite (= $e23 $e534) #b1 #b0)))
(let (($e788 (ite (= (bvnot $e23) $e534) #b1 #b0)))
(let (($e789 (concat $e33 (bvnot $e428))))
(let (($e790 (concat $e33 (bvnot bvlambda_1_))))
(let (($e791 (bvand $e790 $e789)))
(let (($e792 (concat (bvnot $e33) (bvnot $e428))))
(let (($e793 (concat (bvnot $e33) (bvnot bvlambda_1_))))
(let (($e794 (bvand $e793 $e792)))
(let (($e795 (ite (= #b1 $e435) $e794 $e791)))
(let (($e796 (ite (= $e17 (bvnot $e795)) #b1 #b0)))
(let (($e797 (select a102 (bvnot $e32))))
(let (($e798 (concat $e23 $e692)))
(let (($e799 (bvurem $e798 $e797)))
(let (($e800 (ite (= $e17 (bvnot $e799)) #b1 #b0)))
(let (($e801 (bvand $e800 $e796)))
(let (($e802 (bvand $e799 $e795)))
(let (($e803 (ite (= $e17 $e802) #b1 #b0)))
(let (($e804 (ite (= $e17 $e527) #b1 #b0)))
(let (($e805 (ite (= $e20 bvlambda_46_) #b1 #b0)))
(let (($e806 (bvand (bvnot bvlambda_45_) $e805)))
(let (($e807 (ite (= $e10 $e692) #b1 #b0)))
(let (($e808 (ite (= (bvnot $e10) $e692) #b1 #b0)))
(let (($e809 (ite (= $e12 $e386) #b1 #b0)))
(let (($e810 (ite (= $e12 $e394) #b1 #b0)))
(let (($e811 (ite (= $e12 bvlambda_37_) #b1 #b0)))
(let (($e812 (bvand (bvnot bvlambda_36_) $e811)))
(let (($e813 (bvand bvlambda_27_ $e812)))
(let (($e814 (ite (= (bvnot $e12) bvlambda_37_) #b1 #b0)))
(let (($e815 (bvand bvlambda_36_ $e814)))
(let (($e816 (bvand bvlambda_27_ $e815)))
(let (($e817 (ite (= $e8 bvlambda_31_) #b1 #b0)))
(let (($e818 (bvand $e713 $e817)))
(let (($e819 (ite (= (bvnot $e8) bvlambda_31_) #b1 #b0)))
(let (($e820 (bvand bvlambda_29_ bvlambda_30_)))
(let (($e821 (bvand $e820 $e819)))
(let (($e822 (ite (= $e10 bvlambda_28_) #b1 #b0)))
(let (($e823 (bvand (bvnot bvlambda_27_) $e822)))
(let (($e824 (ite (= (bvnot $e10) bvlambda_28_) #b1 #b0)))
(let (($e825 (bvand bvlambda_27_ $e824)))
(let (($e826 (ite (= $e13 bvlambda_19_) #b1 #b0)))
(let (($e827 (bvand $e232 $e826)))
(let (($e828 (bvand (bvnot bvlambda_20_) $e827)))
(let (($e829 (ite (= (bvnot $e13) bvlambda_19_) #b1 #b0)))
(let (($e830 (ite (= (bvnot $e2) bvlambda_18_) #b1 #b0)))
(let (($e831 (ite (= (bvnot $e13) bvlambda_17_) #b1 #b0)))
(let (($e832 (bvand bvlambda_16_ $e831)))
(let (($e833 (bvand $e832 $e830)))
(let (($e834 (bvand $e833 $e829)))
(let (($e835 (bvand bvlambda_20_ $e834)))
(let (($e836 (ite (= $e11 bvlambda_15_) #b1 #b0)))
(let (($e837 (bvand (bvnot bvlambda_14_) $e836)))
(let (($e838 (ite (= (bvnot $e11) bvlambda_15_) #b1 #b0)))
(let (($e839 (bvand bvlambda_14_ $e838)))
(let (($e840 (ite (= v16 $e8) #b1 #b0)))
(let (($e841 (ite (= $e17 $e797) #b1 #b0)))
(let (($e842 (ite (= $e10 $e138) #b1 #b0)))
(let (($e843 (ite (= (bvnot $e10) $e138) #b1 #b0)))
(let (($e844 (ite (= v13 $e23) #b1 #b0)))
(let (($e845 (bvand (bvnot $e844) (bvnot $e843))))
(let (($e846 (bvand $e845 (bvnot $e842))))
(let (($e847 (bvand $e846 (bvnot $e841))))
(let (($e848 (bvand $e847 (bvnot $e840))))
(let (($e849 (bvand $e848 (bvnot $e839))))
(let (($e850 (bvand $e849 (bvnot $e837))))
(let (($e851 (bvand $e850 (bvnot $e835))))
(let (($e852 (bvand $e851 (bvnot $e828))))
(let (($e853 (bvand $e852 (bvnot $e825))))
(let (($e854 (bvand $e853 (bvnot $e823))))
(let (($e855 (bvand $e854 (bvnot $e821))))
(let (($e856 (bvand $e855 (bvnot $e818))))
(let (($e857 (bvand $e856 (bvnot $e816))))
(let (($e858 (bvand $e857 (bvnot $e813))))
(let (($e859 (bvand $e858 (bvnot $e810))))
(let (($e860 (bvand $e859 (bvnot $e809))))
(let (($e861 (bvand $e860 (bvnot $e808))))
(let (($e862 (bvand $e861 (bvnot $e807))))
(let (($e863 (bvand $e862 (bvnot $e806))))
(let (($e864 (bvand $e863 (bvnot $e804))))
(let (($e865 (bvand $e864 (bvnot $e803))))
(let (($e866 (bvand $e865 (bvnot $e801))))
(let (($e867 (bvand $e866 (bvnot $e788))))
(let (($e868 (bvand $e867 (bvnot $e787))))
(let (($e869 (bvand $e868 (bvnot $e786))))
(let (($e870 (bvand $e869 (bvnot $e785))))
(let (($e871 (bvand $e870 $e784)))
(let (($e872 (bvand $e871 (bvnot $e783))))
(let (($e873 (bvand $e872 (bvnot $e782))))
(let (($e874 (bvand $e873 (bvnot $e780))))
(let (($e875 (bvand $e874 (bvnot $e777))))
(let (($e876 (bvand $e875 (bvnot $e776))))
(let (($e877 (bvand $e876 (bvnot $e156))))
(let (($e878 (bvand $e877 (bvnot $e155))))
(let (($e879 (bvand $e878 (bvnot $e131))))
(let (($e880 (bvand $e879 (bvnot $e115))))
(let (($e881 (bvand $e880 (bvnot $e110))))
 (not (= $e881 #b0)))))))))))))))))))))))))))))))))))))))))))))))))))))))))))))))))))))))))))))))))))))))))))))))))))))))))))))))))))))))))))))))))))))))))))))))))))))))))))))))))))))))))))))))))))))))))))))))))))))))))))))))))))))))))))))))))))))))))))))))))))))))))))))))))))))))))))))))))))))))))))))))))))))))))))))))))))))))))))))))))))))))))))))))))))))))))))))))))))))))))))))))))))))))))))))))))))))))))))))))))))))))))))))))))))))))))))))))))))))))))))))))))))))))))))))))))))))))))))))))))))))))))))))))))))))))))))))))))))))))))))))))))))))))))))))))))))))))))))))))))))))))))))))))))))))))))))))))))))))))))))))))))))))))))))))))))))))))))))))))))))))))))))))))))))))))))))))))))))))))))))))))))))))))))))))))))))))))))))))))))))))))))))))))))))))))))))))))))))))))))))))))))))))))))))))))))))))))))))))))))))))))))))))))))))))))))))))))
(check-sat)
(exit)
